decision_x1=[0,2];
decision_x2=[0,2];
decision_x3=[0,2];
decision_x4=[0,2];
decision_x5=[0,2];
random_y1=[0,2];
constraint_x4_x2=[
0,0,1.3|
0,1,7.1|
0,2,4.1|
1,0,6.7|
1,1,6.3|
1,2,1.9|
2,0,1.1|
2,1,6.8|
2,2,0.59|
];
constraint_x4_x3=[
0,0,4.9|
0,1,0.66|
0,2,2.4|
1,0,2|
1,1,6.6|
1,2,5.8|
2,0,1.5|
2,1,4|
2,2,6.6|
];
constraint_x5_x1=[
0,0,0.76|
0,1,5.7|
0,2,9.6|
1,0,0.54|
1,1,0.5|
1,2,7.6|
2,0,2.1|
2,1,8|
2,2,1.4|
];
constraint_x5_x3=[
0,0,4.9|
0,1,5.4|
0,2,5.3|
1,0,0.2|
1,1,1.8|
1,2,3.1|
2,0,2.8|
2,1,6.9|
2,2,8.2|
];
constraint_x5_x4=[
0,0,0.8|
0,1,1.9|
0,2,5.1|
1,0,3.3|
1,1,3|
1,2,1.6|
2,0,6.7|
2,1,6.1|
2,2,5.1|
];
constraint_x1_y1=[
0,0,5.3|
0,1,1.2|
0,2,9.6|
1,0,0.93|
1,1,3.8|
1,2,4.6|
2,0,6.4|
2,1,2.1|
2,2,9.6|
];
initial_distribution_y1=[0.62,0.24,0.14];
transition_y1=[
0.031,0.67,0.3|
0.5,0.44,0.061|
0.093,0.31,0.59|
];
